c --- [ banner ] -------------------------------------------------------------
c 
c CaDiCaL Radically Simplified CDCL SAT Solver
c Copyright (c) 2016-2021 A. Biere, M. Fleury, N. Froleyks
c 
c Version 1.5.2 a5f15211db36c3956764e18194dd5bd63bf3b5e6
c g++ (GCC) 9.3.0 -Wall -Wextra -O3 -DNDEBUG
c Fri Oct 21 01:27:37 EDT 2022 Linux gra-login3 3.10.0-1160.66.1.el7.x86_64 x86_64
c 
c --- [ limit ] --------------------------------------------------------------
c 
c setting conflict limit to 200000 conflicts (due to '200000')
c 
c --- [ parsing input ] ------------------------------------------------------
c 
c reading DIMACS file from '33.cubes5200.adj'
c opening file to read '33.cubes5200.adj'
c found 'p cnf 6160 1595481' header
c parsed 1595481 clauses in 19.02 seconds process time
c closing file '33.cubes5200.adj'
c after reading 1457566817 bytes 1390.0 MB
c 
c --- [ options ] ------------------------------------------------------------
c 
c all options are set to their default value
c 
c --- [ solving ] ------------------------------------------------------------
c 
c time measured in process time since initialization
c 
c  seconds    reductions  redundant   irredundant
c          MB     restarts       trail       variables
c            level   conflicts       glue         remaining
c 
c * 19.02 1377  0 0   0    0    0  0% 0 1595422 2351 38%
c { 19.75 1423  0 0   0    0    0  0% 0 1595422 2351 38%
c i 22.55 1486 473 0   7   51   36 33% 16 1595422 2350 38%
c i 23.60 1494 363 0  14   73   55 30% 21 1595422 2327 38%
c i 24.24 1498 306 0  18   90   70 30% 23 1595422 2297 37%
c i 24.32 1498 297 0  19   93   72 30% 22 1595422 2296 37%
c i 24.53 1499 273 0  22  104   82 30% 23 1595422 2295 37%
c i 24.82 1502 228 0  27  131  101 30% 27 1595422 2293 37%
c i 25.46 1505 211 0  30  144  111 30% 27 1595422 2292 37%
c i 26.15 1507 145 0  34  225  181 30% 25 1595422 2291 37%
c i 26.25 1507 139 0  34  237  192 30% 25 1595422 2290 37%
c i 26.52 1508 138 0  37  253  205 30% 28 1595422 2289 37%
c i 26.69 1509 133 0  41  268  217 30% 28 1595422 2288 37%
c i 26.97 1509 127 0  45  289  233 29% 28 1595422 2287 37%
c - 30.96 1450 126 1  46  300  238 29% 28 440921 2287 37%
c i 31.23 1451 112 1  46  349  280 30% 27 440921 2286 37%
c i 31.26 1451 111 1  46  355  285 30% 27 440921 2285 37%
c i 31.66 1451 108 1  51  389  313 30% 28 440921 2284 37%
c i 31.93 1451 106 1  57  413  334 29% 30 440921 2283 37%
c i 31.96 1451 105 1  59  420  340 29% 30 440921 2282 37%
c 
c  seconds     reductions  redundant   irredundant
c          MB      restarts       trail       variables
c             level   conflicts       glue         remaining
c 
c i 32.12 1451 104 1  64  438  356 29% 30 440921 2281 37%
c i 32.25 1451 104 1  67  453  370 29% 30 440921 2280 37%
c i 32.76 1451 99 1  81  540  445 29% 30 440921 2279 37%
c i 32.87 1451 95 1  89  580  481 29% 31 440921 2278 37%
c i 33.49 1452 82 1  90  776  649 29% 30 440921 2277 37%
c i 33.56 1452 80 1  90  816  675 29% 29 440921 2276 37%
c i 33.73 1452 77 1  90  925  737 29% 29 440921 2275 37%
c i 33.84 1452 77 1  90  957  768 29% 29 440921 2274 37%
c } 33.94 1452 75 1  95 1000  801 29% 29 440921 2274 37%
c [ 33.94 1452  0 1  95 1000  801  0% 0 440921 2274 37%
c O 33.95 1452 21 1  95 1003  804 26% 18 440921 2274 37%
c i 34.40 1452 23 1  95 1272 1024 32% 18 440921 2273 37%
c - 35.20 1645 23 2  95 1288  914 32% 18 440879 2273 37%
c i 35.29 1645 24 2  95 1321  944 32% 19 440879 2272 37%
c i 35.29 1645 24 2  95 1323  945 32% 19 440879 2271 37%
c i 35.31 1645 24 2  95 1335  951 32% 19 440879 2270 37%
c i 35.46 1645 24 2  95 1551 1096 32% 19 440879 2269 37%
c i 35.48 1645 24 2  95 1565 1105 32% 19 440879 2268 37%
c i 35.62 1645 24 2  95 1720 1213 32% 19 440879 2267 37%
c - 36.84 1583 23 3  96 2768 1372 32% 20 440861 2267 37%
c 
c  seconds    reductions  redundant   irredundant
c          MB     restarts       trail       variables
c            level   conflicts       glue         remaining
c 
c ] 37.38 1583 23 3  96 3000 1522 55% 19 440861 2267 37%
c { 37.38 1583 75 3  96 3000 1522 80% 29 440861 2267 37%
c F 37.43 1583 75 3  96 3006 1526 80% 29 440861 2267 37%
c i 37.74 1583 74 3  96 3027 1544 79% 28 440861 2266 37%
c i 38.07 1583 70 3  96 3117 1620 76% 27 440861 2265 37%
c i 38.11 1583 69 3  96 3149 1647 75% 27 440861 2264 37%
c i 38.17 1583 67 3  96 3207 1686 74% 26 440861 2263 37%
c i 38.36 1583 66 3  96 3213 1690 74% 26 440861 2262 37%
c i 38.49 1583 66 3  96 3237 1713 73% 26 440861 2261 37%
c i 38.80 1583 67 3  98 3262 1734 73% 26 440861 2260 37%
c i 38.81 1583 67 3  99 3266 1736 73% 26 440861 2259 37%
c i 38.84 1583 67 3 100 3270 1738 73% 26 440861 2258 37%
c i 39.28 1583 65 3 112 3349 1807 71% 27 440861 2257 37%
c i 40.26 1583 61 3 123 3567 1978 68% 26 440861 2256 37%
c i 40.52 1583 58 3 123 3733 2091 66% 25 440861 2255 37%
c i 40.62 1583 56 3 123 3807 2134 65% 25 440861 2254 37%
c - 42.78 1577 44 4 123 4741 1909 60% 22 440822 2254 37%
c d 44.21 1578 41 4 123 5000 2034 59% 21 440806 2246 36%
c 2 44.31 1578 41 4 123 5000 3012 59% 21 440806 2227 36%
c p 52.29 1578 41 4 123 5000 5388 59% 21 440806 2167 35%
c 
c  seconds    reductions  redundant   irredundant
c          MB     restarts       trail       variables
c            level   conflicts       glue         remaining
c 
c d 52.97 1578 41 4 123 5000 5325 59% 21 368753 2163 35%
c # 54.85 1578 36 4 131 6008 6020 56% 20 368751 2162 35%
c } 56.13 1578 33 4 132 7001 6645 55% 19 368751 2162 35%
c [ 56.13 1578 23 4 132 7001 6645 55% 19 368751 2162 35%
c - 56.67 1394 22 5 133 7207 2600 53% 19 368751 2162 35%
c I 59.73 1394 38 5 134 10009 4556 47% 29 368751 2162 35%
c - 60.09 1394 38 6 134 10028 3168 47% 29 368751 2162 35%
c - 61.69 1394 32 7 136 13322 3576 49% 26 368751 2162 35%
c ] 62.37 1394 30 7 137 15002 4629 49% 24 368751 2162 35%
c { 62.37 1394 33 7 137 15002 4629 55% 19 368751 2162 35%
c 2 62.46 1394 33 7 137 15002 5609 55% 19 368750 2162 35%
c p 64.43 1394 33 7 137 15002 8082 55% 19 368750 2162 35%
c B 64.66 1394 33 7 138 15012 8091 55% 19 368750 2162 35%
c - 68.47 1394 30 8 246 17085 4210 53% 19 368750 2162 35%
c s 81.10 1394 35 8 540 18813 5488 51% 21 366869 2162 35%
c v 87.17 1394 35 8 540 18813 5488 51% 21 366856 2162 35%
c t 87.36 1394 35 8 540 18813 5475 51% 21 366847 2162 35%
c e 88.61 1396 35 8 540 18813 5057 51% 21 364716 924 15%
c s 88.74 1396 35 8 540 18813 5057 51% 21 363695 924 15%
c W 99.50 1396 35 8 733 21014 6799 67% 21 363695 924 15%
c 
c  seconds     reductions   redundant   irredundant
c           MB     restarts        trail       variables
c             level    conflicts       glue        remaining
c 
c - 100.68 1398 35 9 733 21315 5156 68% 21 363695 924 15%
c - 112.58 1397 32 10 1004 26001 6090 68% 20 363695 924 15%
c F 115.74 1398 31 10 1099 28019 7441 69% 20 363695 924 15%
c p 126.07 1397 32 10 1346 30002 11333 69% 21 363695 923 15%
c } 128.87 1398 32 10 1423 31002 12100 69% 21 363695 923 15%
c [ 128.87 1398 30 10 1423 31002 12100 120% 24 363695 923 15%
c - 129.34 1398 30 11 1423 31153 7257 120% 24 363692 923 15%
c B 133.33 1398 28 11 1426 36022 10195 101% 24 363692 923 15%
c - 134.68 1398 29 12 1426 36772 7134 99% 24 363692 923 15%
c - 139.36 1397 30 13 1430 42858 7947 90% 25 363692 923 15%
c W 142.50 1398 30 13 1430 45023 9465 87% 26 363692 923 15%
c - 143.96 1398 32 14 1431 49414 8628 85% 27 363692 923 15%
c p 146.46 1398 32 14 1431 50002 11600 84% 27 363692 923 15%
c s 148.97 1398 31 14 1431 53299 13951 83% 27 362826 923 15%
c v 155.12 1398 31 14 1431 53299 13951 83% 27 362813 923 15%
c t 155.38 1398 31 14 1431 53299 13933 83% 27 362812 923 15%
c e 156.62 1400 31 14 1431 53299 13932 83% 27 362804 917 15%
c s 156.81 1400 31 14 1431 53299 13932 83% 27 361743 917 15%
c O 159.13 1401 31 14 1432 55026 15128 82% 26 361743 917 15%
c - 160.11 1401 30 15 1434 56439 9039 82% 26 361743 917 15%
c 
c  seconds     reductions      redundant   irredundant
c           MB      restarts          trail       variables
c             level      conflicts        glue        remaining
c 
c ] 164.42 1401 30 15 1438 63003 13562 80% 26 361743 917 15%
c { 164.42 1401 32 15 1438 63003 13562 69% 21 361743 917 15%
c - 165.01 1401 32 16 1438 63919 9281 69% 21 361743 917 15%
c B 166.71 1401 31 16 1472 66028 10742 70% 20 361743 917 15%
c } 167.96 1401 29 16 1515 69004 12560 70% 20 361743 917 15%
c 1 167.97 1401 29 16 1515 69004 12560 70% 20 361743 917 15%
c 
c --- [ writing output ] -----------------------------------------------------
c 
c writing simplified CNF to DIMACS file 'simp/33.cubes5200.adj.simp1'
c * 167.97 1401 29 16 1515 69004 12560 70% 20 361743 917 15%
c opening file to write 'simp/33.cubes5200.adj.simp1'
c writing 'p cnf 6160 361743' header
c closing file 'simp/33.cubes5200.adj.simp1'
c after writing 160177000 bytes 152.8 MB
c wrote 361743 clauses in 1.16 seconds process time
c 
c --- [ writing extension ] --------------------------------------------------
c 
c writing extension stack to 'simp/33.cubes5200.adj.ext1'
c opening file to write 'simp/33.cubes5200.adj.ext1'
c closing file 'simp/33.cubes5200.adj.ext1'
c after writing 83349 bytes 0.1 MB
c wrote 3757 witnesses in 0.00 seconds process time
c 
c --- [ result ] -------------------------------------------------------------
c 
s SATISFIABLE
c 
c --- [ run-time profiling ] -------------------------------------------------
c 
c process time taken by individual solving procedures
c (percentage relative to process time for solving)
c 
c       113.83   76.42% search
c        78.71   52.85% unstable
c        35.12   23.58% simplify
c        32.28   21.67% stable
c        19.02   12.77% parse
c        15.13   10.16% probe
c        12.58    8.44% vivify
c         4.75    3.19% elim
c         2.11    1.41% walk
c         0.73    0.49% lucky
c         0.61    0.41% subsume
c         0.21    0.14% ternary
c   =================================
c       148.95   88.07% solve
c 
c last line shows process time for solving
c (percentage relative to total process time)
c 
c --- [ statistics ] ---------------------------------------------------------
c 
c chronological:             11742        17.02 %  of conflicts
c conflicts:                 69004       463.28    per second
c decisions:                156598      1051.36    per second
c eliminated:                 1244        20.19 %  of all variables
c fixed:                       842        13.67 %  of all variables
c learned:                   67533        97.87 %  per conflict
c learned_lits:           13265795       100.00 %  learned literals
c minimized:                     0         0.00 %  learned literals
c shrunken:                7810861        58.88 %  learned literals
c minishrunken:            1235159         9.31 %  learned literals
c propagations:            6007960         0.04 M  per second
c reduced:                   35076        50.83 %  per conflict
c rephased:                     11      6273.09    interval
c restarts:                   1515        45.55    interval
c stabilizing:                   3        60.87 %  of conflicts
c substituted:                  13         0.21 %  of all variables
c subsumed:                  24354         0.68 %  of all clauses
c strengthened:               9383         0.26 %  of all clauses
c ternary:                    3182         0.68 %  of resolved
c vivified:                     65         0.00 %  of all clauses
c walked:                        2     34502.00    interval
c weakened:                   2915         3.02    average size
c 
c seconds are measured in process time for solving
c 
c --- [ resources ] ----------------------------------------------------------
c 
c total process time since initialization:       169.13    seconds
c total real time since initialization:          169.64    seconds
c maximum resident set size of process:         1836.88    MB
c 
c --- [ shutting down ] ------------------------------------------------------
c 
c exit 10
WARNING! DIMACS header mismatch: wrong number of variables.
============================[ Problem Statistics ]=============================
|                                                                             |
|  Number of variables:          6111                                         |
|  Number of clauses:          361743                                         |
|  Parse time:                   2.08 s                                       |
|  Simplification time:          0.05 s                                       |
|                                                                             |
============================[ Search Statistics ]====================================================
| Conflicts |          ORIGINAL         |          LEARNT          | Num Sols |      SUBGRAPHS      |
|           |    Vars  Clauses Literals |    Limit  Clauses Lit/Cl |          | Canonical Noncanon. |
=====================================================================================================
|       109 |    6018   361752 34838964 |     2000      109     88 |        0 |        24         9 |
|       351 |    6018   361844 34840286 |     2000      351     49 |        0 |        98       101 |
|       601 |    6018   361869 34840577 |     2000      601     59 |        0 |       131       126 |
|      1000 |    6018   361931 34841208 |     2000     1000     69 |        0 |       204       188 |
|      1514 |    6018   361939 34841488 |     2000     1514     82 |        0 |       211       196 |
|      2375 |    6018   362041 34842622 |     3600     1375     49 |        0 |       280       298 |
|      3627 |    6018   362154 34844298 |     3600     2627     69 |        0 |       307       411 |
|      5467 |    6018   362286 34846969 |     5000     2667     52 |        0 |       383       543 |
|      8135 |    6018   362392 34849452 |     6301     2836     43 |        0 |       421       649 |
|     12353 |    6018   362766 34855187 |     7554     3907     35 |        0 |       607      1023 |
|     18571 |    6018   363218 34861586 |     8783     6354     59 |        0 |       764      1475 |
|     28185 |    6018   364183 34876411 |    11199     6584     40 |        0 |      1009      2440 |
|     41609 |    6018   364633 34884552 |    13603     8212     42 |        0 |      1221      2890 |
|     61597 |    6018   365160 34893370 |    16003    14000     60 |        0 |      1439      3417 |
|     91957 |    6018   366328 34909866 |    19614    18571     65 |        0 |      1827      4585 |
|    138108 |    6018   368690 34945745 |    24413    21921     58 |        0 |      2524      6947 |
|    204119 |    6018   369017 34950879 |    30434    20953     56 |        0 |      2647      7274 |
|    303109 |    6018   369481 34960204 |    37614    19723     39 |        0 |      2854      7738 |
|    452149 |    6018   370732 34983289 |    46024    24573     41 |        0 |      3447      8989 |
|    674393 |    6018   371293 34995906 |    55625    46018     66 |        0 |      3910      9550 |
|   1011532 |    6018   375907 35088933 |    68825    44357     55 |        0 |      5305     14164 |
|   1517234 |    6018   382821 35223236 |    84414    56048     57 |        0 |      7302     21078 |
|   2268952 |    6018   386357 35301988 |   103613    60565     50 |        1 |      8401     24613 |
|   3396636 |    6018   391767 35409005 |   126425   101461     60 |        4 |     10542     30020 |
|   5085152 |    5997   395883 35503526 |   155218   107570     55 |        4 |     12422     35125 |
=====================================================================================================
Number of solutions   : 5
Canonical subgraphs   : 12982          (14 /sec)
          order  3    : 1              (166667 /sec)
          order  4    : 1              (500000 /sec)
          order  5    : 1              (250000 /sec)
          order  6    : 1              (55556 /sec)
          order  7    : 1              (9009 /sec)
          order  8    : 2              (1364 /sec)
          order  9    : 7              (354 /sec)
          order 10    : 30             (111 /sec)
          order 11    : 131            (35 /sec)
          order 12    : 910            (13 /sec)
          order 13    : 1428           (8 /sec)
          order 14    : 2337           (14 /sec)
          order 15    : 4543           (18 /sec)
          order 16    : 1432           (17 /sec)
          order 17    : 985            (15 /sec)
          order 18    : 530            (12 /sec)
          order 19    : 210            (14 /sec)
          order 20    : 210            (14 /sec)
          order 21    : 217            (14 /sec)
          order 22    : 5              (1 /sec)
Noncanonical subgraphs: 36765          (315 /sec)
          order  3    : 0              (-nan /sec)
          order  4    : 0              (-nan /sec)
          order  5    : 0              (-nan /sec)
          order  6    : 0              (-nan /sec)
          order  7    : 0              (-nan /sec)
          order  8    : 0              (-nan /sec)
          order  9    : 0              (-nan /sec)
          order 10    : 0              (-nan /sec)
          order 11    : 0              (-nan /sec)
          order 12    : 0              (-nan /sec)
          order 13    : 6576           (3386 /sec)
          order 14    : 12403          (872 /sec)
          order 15    : 7463           (1573 /sec)
          order 16    : 9394           (139 /sec)
          order 17    : 408            (63 /sec)
          order 18    : 287            (55 /sec)
          order 19    : 2              (719 /sec)
          order 20    : 1              (676 /sec)
          order 21    : 2              (1248 /sec)
Canonicity checking   : 912.74 s
Noncanonicity checking: 116.791 s
Total canonicity time : 1029.53 s
database reductions   : 135
restarts              : 9083
conflicts             : 5704771        (1584 /sec)
decisions             : 6979456        (0.00 % random) (1938 /sec)
propagations          : 270121786      (74987 /sec)
conflict literals     : 604596811      (55.66 % deleted)
actual reward         : 0.258490
Memory used           : 612.00 MB
CPU time              : 3602.25 s

UNSATISFIABLE
